# Solution for model r3_t9_m7_3
# Finished Task: 8 / 9
# Makespan: 619.0, Total Distance: 160.0, Total Time: 3.2723
# R O S F
0 0 5 105.0 105.0
1 1 11 73.0 73.0
2 2 4 195.0 195.0
3 -1 -1 530.0 565.0
4 2 8 220.0 241.0
5 0 6 324.0 359.0
6 0 -1 389.0 418.0
7 1 9 496.0 530.0
8 2 -1 418.0 444.0
9 1 10 543.0 579.0
10 1 -1 587.0 619.0
11 1 7 444.0 472.0
